(set-info :status unknown)
(declare-const symbol_140 (_ BitVec 32))
(declare-const symbol_71 (_ BitVec 32))
(declare-const symbol_35 (_ BitVec 32))
(declare-const symbol_25 (_ BitVec 32))
(declare-const symbol_78 (_ BitVec 32))
(declare-const symbol_125 (_ BitVec 32))
(declare-const symbol_189 (_ BitVec 32))
(declare-const symbol_73 (_ BitVec 32))
(declare-const symbol_42 (_ BitVec 32))
(declare-const symbol_156 (_ BitVec 32))
(declare-const symbol_110 (_ BitVec 32))
(declare-const symbol_91 (_ BitVec 32))
(declare-const symbol_58 (_ BitVec 32))
(declare-const symbol_17 (_ BitVec 32))
(declare-const symbol_152 (_ BitVec 32))
(declare-const symbol_115 (_ BitVec 32))
(declare-const symbol_178 (_ BitVec 32))
(declare-const symbol_54 (_ BitVec 32))
(declare-const symbol_106 (_ BitVec 32))
(declare-const symbol_167 (_ BitVec 32))
(declare-const symbol_131 (_ BitVec 32))
(declare-const symbol_130 (_ BitVec 32))
(declare-const symbol_137 (_ BitVec 32))
(declare-const symbol_171 (_ BitVec 32))
(declare-const symbol_102 (_ BitVec 32))
(declare-const symbol_128 (_ BitVec 32))
(declare-const symbol_77 (_ BitVec 32))
(declare-const symbol_60 (_ BitVec 32))
(declare-const symbol_84 (_ BitVec 32))
(declare-const symbol_26 (_ BitVec 32))
(declare-const symbol_28 (_ BitVec 32))
(declare-const symbol_158 (_ BitVec 32))
(declare-const symbol_29 (_ BitVec 32))
(declare-const symbol_23 (_ BitVec 32))
(declare-const symbol_15 (_ BitVec 32))
(declare-const symbol_104 (_ BitVec 32))
(declare-const symbol_184 (_ BitVec 32))
(declare-const symbol_166 (_ BitVec 32))
(declare-const symbol_44 (_ BitVec 32))
(declare-const symbol_103 (_ BitVec 32))
(declare-const symbol_96 (_ BitVec 32))
(declare-const symbol_181 (_ BitVec 32))
(declare-const symbol_47 (_ BitVec 32))
(declare-const symbol_52 (_ BitVec 32))
(declare-const symbol_16 (_ BitVec 32))
(declare-const symbol_11 (_ BitVec 32))
(declare-const symbol_95 (_ BitVec 32))
(declare-const symbol_14 (_ BitVec 32))
(declare-const symbol_117 (_ BitVec 32))
(declare-const symbol_46 (_ BitVec 32))
(declare-const symbol_24 (_ BitVec 32))
(declare-const symbol_1 (_ BitVec 32))
(declare-const symbol_185 (_ BitVec 32))
(declare-const symbol_74 (_ BitVec 32))
(declare-const symbol_22 (_ BitVec 32))
(declare-const symbol_67 (_ BitVec 32))
(declare-const symbol_176 (_ BitVec 32))
(declare-const symbol_79 (_ BitVec 32))
(declare-const symbol_62 (_ BitVec 32))
(declare-const symbol_80 (_ BitVec 32))
(declare-const symbol_50 (_ BitVec 32))
(declare-const symbol_66 (_ BitVec 32))
(declare-const symbol_40 (_ BitVec 32))
(declare-const symbol_30 (_ BitVec 32))
(declare-const symbol_180 (_ BitVec 32))
(declare-const symbol_136 (_ BitVec 32))
(declare-const symbol_21 (_ BitVec 32))
(declare-const symbol_19 (_ BitVec 32))
(declare-const symbol_43 (_ BitVec 32))
(declare-const symbol_93 (_ BitVec 32))
(declare-const symbol_2 (_ BitVec 32))
(declare-const symbol_101 (_ BitVec 32))
(declare-const symbol_154 (_ BitVec 32))
(declare-const symbol_86 (_ BitVec 32))
(declare-const symbol_151 (_ BitVec 32))
(declare-const symbol_98 (_ BitVec 32))
(declare-const symbol_31 (_ BitVec 32))
(declare-const symbol_20 (_ BitVec 32))
(declare-const symbol_7 (_ BitVec 32))
(declare-const symbol_39 (_ BitVec 32))
(declare-const symbol_159 (_ BitVec 32))
(declare-const symbol_12 (_ BitVec 32))
(declare-const symbol_119 (_ BitVec 32))
(declare-const symbol_76 (_ BitVec 32))
(declare-const symbol_70 (_ BitVec 32))
(declare-const symbol_5 (_ BitVec 32))
(declare-const symbol_187 (_ BitVec 32))
(declare-const symbol_90 (_ BitVec 32))
(declare-const symbol_55 (_ BitVec 32))
(declare-const symbol_32 (_ BitVec 32))
(declare-const symbol_155 (_ BitVec 32))
(declare-const symbol_68 (_ BitVec 32))
(declare-const symbol_162 (_ BitVec 32))
(declare-const symbol_150 (_ BitVec 32))
(declare-const symbol_163 (_ BitVec 32))
(declare-const symbol_160 (_ BitVec 32))
(declare-const symbol_175 (_ BitVec 32))
(declare-const symbol_144 (_ BitVec 32))
(declare-const symbol_134 (_ BitVec 32))
(declare-const symbol_112 (_ BitVec 32))
(declare-const symbol_27 (_ BitVec 32))
(declare-const symbol_118 (_ BitVec 32))
(declare-const symbol_153 (_ BitVec 32))
(declare-const symbol_149 (_ BitVec 32))
(declare-const symbol_109 (_ BitVec 32))
(declare-const symbol_33 (_ BitVec 32))
(declare-const symbol_45 (_ BitVec 32))
(declare-const symbol_164 (_ BitVec 32))
(declare-const symbol_132 (_ BitVec 32))
(declare-const symbol_113 (_ BitVec 32))
(declare-const symbol_49 (_ BitVec 32))
(declare-const symbol_182 (_ BitVec 32))
(declare-const symbol_63 (_ BitVec 32))
(declare-const symbol_157 (_ BitVec 32))
(declare-const symbol_141 (_ BitVec 32))
(declare-const symbol_168 (_ BitVec 32))
(declare-const symbol_116 (_ BitVec 32))
(declare-const symbol_85 (_ BitVec 32))
(declare-const symbol_172 (_ BitVec 32))
(declare-const symbol_143 (_ BitVec 32))
(declare-const symbol_10 (_ BitVec 32))
(declare-const symbol_4 (_ BitVec 32))
(declare-const symbol_75 (_ BitVec 32))
(declare-const symbol_135 (_ BitVec 32))
(declare-const symbol_0 (_ BitVec 32))
(declare-const symbol_139 (_ BitVec 32))
(declare-const symbol_82 (_ BitVec 32))
(declare-const symbol_9 (_ BitVec 32))
(declare-const symbol_92 (_ BitVec 32))
(declare-const symbol_161 (_ BitVec 32))
(declare-const symbol_188 (_ BitVec 32))
(declare-const symbol_179 (_ BitVec 32))
(declare-const symbol_65 (_ BitVec 32))
(declare-const symbol_36 (_ BitVec 32))
(declare-const symbol_64 (_ BitVec 32))
(declare-const symbol_183 (_ BitVec 32))
(declare-const symbol_108 (_ BitVec 32))
(declare-const symbol_133 (_ BitVec 32))
(declare-const symbol_61 (_ BitVec 32))
(declare-const symbol_34 (_ BitVec 32))
(declare-const symbol_3 (_ BitVec 32))
(declare-const symbol_123 (_ BitVec 32))
(declare-const symbol_145 (_ BitVec 32))
(declare-const symbol_126 (_ BitVec 32))
(declare-const symbol_38 (_ BitVec 32))
(declare-const symbol_105 (_ BitVec 32))
(declare-const symbol_100 (_ BitVec 32))
(declare-const symbol_57 (_ BitVec 32))
(declare-const symbol_6 (_ BitVec 32))
(declare-const symbol_127 (_ BitVec 32))
(declare-const symbol_94 (_ BitVec 32))
(declare-const symbol_72 (_ BitVec 32))
(declare-const symbol_41 (_ BitVec 32))
(declare-const symbol_83 (_ BitVec 32))
(declare-const symbol_173 (_ BitVec 32))
(declare-const symbol_97 (_ BitVec 32))
(declare-const symbol_177 (_ BitVec 32))
(declare-const symbol_122 (_ BitVec 32))
(declare-const symbol_18 (_ BitVec 32))
(declare-const symbol_147 (_ BitVec 32))
(declare-const symbol_170 (_ BitVec 32))
(declare-const symbol_169 (_ BitVec 32))
(declare-const symbol_111 (_ BitVec 32))
(declare-const symbol_37 (_ BitVec 32))
(declare-const symbol_120 (_ BitVec 32))
(declare-const symbol_88 (_ BitVec 32))
(declare-const symbol_190 (_ BitVec 32))
(declare-const symbol_174 (_ BitVec 32))
(declare-const symbol_99 (_ BitVec 32))
(declare-const symbol_107 (_ BitVec 32))
(declare-const symbol_51 (_ BitVec 32))
(declare-const symbol_142 (_ BitVec 32))
(declare-const symbol_89 (_ BitVec 32))
(declare-const symbol_124 (_ BitVec 32))
(declare-const symbol_186 (_ BitVec 32))
(declare-const symbol_121 (_ BitVec 32))
(declare-const symbol_13 (_ BitVec 32))
(declare-const symbol_53 (_ BitVec 32))
(declare-const symbol_59 (_ BitVec 32))
(declare-const symbol_165 (_ BitVec 32))
(declare-const symbol_56 (_ BitVec 32))
(declare-const symbol_146 (_ BitVec 32))
(declare-const symbol_148 (_ BitVec 32))
(declare-const symbol_138 (_ BitVec 32))
(declare-const symbol_69 (_ BitVec 32))
(declare-const symbol_8 (_ BitVec 32))
(declare-const symbol_129 (_ BitVec 32))
(declare-const symbol_114 (_ BitVec 32))
(declare-const symbol_81 (_ BitVec 32))
(declare-const symbol_87 (_ BitVec 32))
(declare-const symbol_48 (_ BitVec 32))
(assert (bvslt symbol_190 symbol_1))
(assert (not (bvslt symbol_189 symbol_1)))
(assert (not (bvslt symbol_188 symbol_1)))
(assert (not (bvslt symbol_187 symbol_1)))
(assert (not (bvslt symbol_186 symbol_1)))
(assert (not (bvslt symbol_185 symbol_1)))
(assert (not (bvslt symbol_184 symbol_1)))
(assert (not (bvslt symbol_183 symbol_1)))
(assert (not (bvslt symbol_182 symbol_1)))
(assert (not (bvslt symbol_181 symbol_1)))
(assert (not (bvslt symbol_180 symbol_1)))
(assert (not (bvslt symbol_179 symbol_1)))
(assert (not (bvslt symbol_178 symbol_1)))
(assert (not (bvslt symbol_177 symbol_1)))
(assert (not (bvslt symbol_176 symbol_1)))
(assert (not (bvslt symbol_175 symbol_1)))
(assert (not (bvslt symbol_174 symbol_1)))
(assert (not (bvslt symbol_173 symbol_1)))
(assert (not (bvslt symbol_172 symbol_1)))
(assert (not (bvslt symbol_171 symbol_1)))
(assert (not (bvslt symbol_170 symbol_1)))
(assert (not (bvslt symbol_169 symbol_1)))
(assert (not (bvslt symbol_168 symbol_1)))
(assert (not (bvslt symbol_167 symbol_1)))
(assert (not (bvslt symbol_166 symbol_1)))
(assert (not (bvslt symbol_165 symbol_1)))
(assert (not (bvslt symbol_164 symbol_1)))
(assert (not (bvslt symbol_163 symbol_1)))
(assert (not (bvslt symbol_162 symbol_1)))
(assert (not (bvslt symbol_161 symbol_1)))
(assert (not (bvslt symbol_160 symbol_1)))
(assert (not (bvslt symbol_159 symbol_1)))
(assert (not (bvslt symbol_158 symbol_1)))
(assert (not (bvslt symbol_157 symbol_1)))
(assert (not (bvslt symbol_156 symbol_1)))
(assert (not (bvslt symbol_155 symbol_1)))
(assert (not (bvslt symbol_154 symbol_1)))
(assert (not (bvslt symbol_153 symbol_1)))
(assert (not (bvslt symbol_152 symbol_1)))
(assert (not (bvslt symbol_151 symbol_1)))
(assert (not (bvslt symbol_150 symbol_1)))
(assert (not (bvslt symbol_149 symbol_1)))
(assert (not (bvslt symbol_148 symbol_1)))
(assert (not (bvslt symbol_147 symbol_1)))
(assert (not (bvslt symbol_146 symbol_1)))
(assert (not (bvslt symbol_145 symbol_1)))
(assert (not (bvslt symbol_144 symbol_1)))
(assert (not (bvslt symbol_143 symbol_1)))
(assert (not (bvslt symbol_142 symbol_1)))
(assert (not (bvslt symbol_141 symbol_1)))
(assert (not (bvslt symbol_140 symbol_1)))
(assert (not (bvslt symbol_139 symbol_1)))
(assert (not (bvslt symbol_138 symbol_1)))
(assert (not (bvslt symbol_137 symbol_1)))
(assert (not (bvslt symbol_136 symbol_1)))
(assert (not (bvslt symbol_135 symbol_1)))
(assert (not (bvslt symbol_134 symbol_1)))
(assert (not (bvslt symbol_133 symbol_1)))
(assert (not (bvslt symbol_132 symbol_1)))
(assert (not (bvslt symbol_131 symbol_1)))
(assert (not (bvslt symbol_130 symbol_1)))
(assert (not (bvslt symbol_129 symbol_1)))
(assert (not (bvslt symbol_128 symbol_1)))
(assert (not (bvslt symbol_127 symbol_1)))
(assert (not (bvslt symbol_126 symbol_1)))
(assert (not (bvslt symbol_125 symbol_1)))
(assert (not (bvslt symbol_124 symbol_1)))
(assert (not (bvslt symbol_123 symbol_1)))
(assert (not (bvslt symbol_122 symbol_1)))
(assert (not (bvslt symbol_121 symbol_1)))
(assert (not (bvslt symbol_120 symbol_1)))
(assert (not (bvslt symbol_119 symbol_1)))
(assert (not (bvslt symbol_118 symbol_1)))
(assert (not (bvslt symbol_117 symbol_1)))
(assert (not (bvslt symbol_116 symbol_1)))
(assert (not (bvslt symbol_115 symbol_1)))
(assert (not (bvslt symbol_114 symbol_1)))
(assert (not (bvslt symbol_113 symbol_1)))
(assert (not (bvslt symbol_112 symbol_1)))
(assert (not (bvslt symbol_111 symbol_1)))
(assert (not (bvslt symbol_110 symbol_1)))
(assert (not (bvslt symbol_109 symbol_1)))
(assert (not (bvslt symbol_108 symbol_1)))
(assert (not (bvslt symbol_107 symbol_1)))
(assert (not (bvslt symbol_106 symbol_1)))
(assert (not (bvslt symbol_105 symbol_1)))
(assert (not (bvslt symbol_104 symbol_1)))
(assert (not (bvslt symbol_103 symbol_1)))
(assert (not (bvslt symbol_102 symbol_1)))
(assert (not (bvslt symbol_101 symbol_1)))
(assert (not (bvslt symbol_100 symbol_1)))
(assert (not (bvslt symbol_99 symbol_1)))
(assert (not (bvslt symbol_98 symbol_1)))
(assert (not (bvslt symbol_97 symbol_1)))
(assert (not (bvslt symbol_96 symbol_1)))
(assert (not (bvslt symbol_95 symbol_1)))
(assert (not (bvslt symbol_94 symbol_1)))
(assert (not (bvslt symbol_93 symbol_1)))
(assert (not (bvslt symbol_92 symbol_1)))
(assert (not (bvslt symbol_91 symbol_1)))
(assert (not (bvslt symbol_90 symbol_1)))
(assert (not (bvslt symbol_89 symbol_1)))
(assert (not (bvslt symbol_88 symbol_1)))
(assert (not (bvslt symbol_87 symbol_1)))
(assert (not (bvslt symbol_86 symbol_1)))
(assert (not (bvslt symbol_85 symbol_1)))
(assert (not (bvslt symbol_84 symbol_1)))
(assert (not (bvslt symbol_83 symbol_1)))
(assert (not (bvslt symbol_82 symbol_1)))
(assert (not (bvslt symbol_81 symbol_1)))
(assert (not (bvslt symbol_80 symbol_1)))
(assert (not (bvslt symbol_79 symbol_1)))
(assert (not (bvslt symbol_78 symbol_1)))
(assert (not (bvslt symbol_77 symbol_1)))
(assert (not (bvslt symbol_76 symbol_1)))
(assert (not (bvslt symbol_75 symbol_1)))
(assert (not (bvslt symbol_74 symbol_1)))
(assert (not (bvslt symbol_73 symbol_1)))
(assert (not (bvslt symbol_72 symbol_1)))
(assert (not (bvslt symbol_71 symbol_1)))
(assert (not (bvslt symbol_70 symbol_1)))
(assert (not (bvslt symbol_69 symbol_1)))
(assert (not (bvslt symbol_68 symbol_1)))
(assert (not (bvslt symbol_67 symbol_1)))
(assert (not (bvslt symbol_66 symbol_1)))
(assert (not (bvslt symbol_65 symbol_1)))
(assert (not (bvslt symbol_64 symbol_1)))
(assert (not (bvslt symbol_63 symbol_1)))
(assert (not (bvslt symbol_62 symbol_1)))
(assert (not (bvslt symbol_61 symbol_1)))
(assert (not (bvslt symbol_60 symbol_1)))
(assert (not (bvslt symbol_59 symbol_1)))
(assert (not (bvslt symbol_58 symbol_1)))
(assert (not (bvslt symbol_57 symbol_1)))
(assert (not (bvslt symbol_56 symbol_1)))
(assert (not (bvslt symbol_55 symbol_1)))
(assert (not (bvslt symbol_54 symbol_1)))
(assert (not (bvslt symbol_53 symbol_1)))
(assert (not (bvslt symbol_52 symbol_1)))
(assert (not (bvslt symbol_51 symbol_1)))
(assert (not (bvslt symbol_50 symbol_1)))
(assert (not (bvslt symbol_49 symbol_1)))
(assert (not (bvslt symbol_48 symbol_1)))
(assert (not (bvslt symbol_47 symbol_1)))
(assert (not (bvslt symbol_46 symbol_1)))
(assert (not (bvslt symbol_45 symbol_1)))
(assert (not (bvslt symbol_44 symbol_1)))
(assert (not (bvslt symbol_43 symbol_1)))
(assert (not (bvslt symbol_42 symbol_1)))
(assert (not (bvslt symbol_41 symbol_1)))
(assert (not (bvslt symbol_40 symbol_1)))
(assert (not (bvslt symbol_39 symbol_1)))
(assert (not (bvslt symbol_38 symbol_1)))
(assert (not (bvslt symbol_37 symbol_1)))
(assert (not (bvslt symbol_36 symbol_1)))
(assert (not (bvslt symbol_35 symbol_1)))
(assert (not (bvslt symbol_34 symbol_1)))
(assert (not (bvslt symbol_33 symbol_1)))
(assert (not (bvslt symbol_32 symbol_1)))
(assert (not (bvslt symbol_31 symbol_1)))
(assert (not (bvslt symbol_30 symbol_1)))
(assert (not (bvslt symbol_29 symbol_1)))
(assert (not (bvslt symbol_28 symbol_1)))
(assert (not (bvslt symbol_27 symbol_1)))
(assert (not (bvslt symbol_26 symbol_1)))
(assert (not (bvslt symbol_25 symbol_1)))
(assert (not (bvslt symbol_24 symbol_1)))
(assert (not (bvslt symbol_23 symbol_1)))
(assert (not (bvslt symbol_22 symbol_1)))
(assert (not (bvslt symbol_21 symbol_1)))
(assert (not (bvslt symbol_20 symbol_1)))
(assert (not (bvslt symbol_19 symbol_1)))
(assert (not (bvslt symbol_18 symbol_1)))
(assert (not (bvslt symbol_17 symbol_1)))
(assert (not (bvslt symbol_16 symbol_1)))
(assert (not (bvslt symbol_15 symbol_1)))
(assert (not (bvslt symbol_14 symbol_1)))
(assert (not (bvslt symbol_13 symbol_1)))
(assert (not (bvslt symbol_12 symbol_1)))
(assert (not (bvslt symbol_11 symbol_1)))
(assert (not (bvslt symbol_10 symbol_1)))
(assert (not (bvslt symbol_9 symbol_1)))
(assert (not (bvslt symbol_8 symbol_1)))
(assert (not (bvslt symbol_7 symbol_1)))
(assert (not (bvslt symbol_6 symbol_1)))
(assert (not (bvslt symbol_5 symbol_1)))
(assert (not (bvslt symbol_4 symbol_1)))
(assert (not (bvslt symbol_3 symbol_1)))
(assert (not (bvslt symbol_2 symbol_1)))
(assert (bvslt symbol_1 symbol_0))
(check-sat)